c r_3(4) > 12 ?  SAT => yes (witness colouring); UNSAT => r_3(4) <= 12
p cnf 220 990
-1 -2 -11 -56 0
1 2 11 56 0
-1 -3 -12 -57 0
1 3 12 57 0
-1 -4 -13 -58 0
1 4 13 58 0
-1 -5 -14 -59 0
1 5 14 59 0
-1 -6 -15 -60 0
1 6 15 60 0
-1 -7 -16 -61 0
1 7 16 61 0
-1 -8 -17 -62 0
1 8 17 62 0
-1 -9 -18 -63 0
1 9 18 63 0
-1 -10 -19 -64 0
1 10 19 64 0
-2 -3 -20 -65 0
2 3 20 65 0
-2 -4 -21 -66 0
2 4 21 66 0
-2 -5 -22 -67 0
2 5 22 67 0
-2 -6 -23 -68 0
2 6 23 68 0
-2 -7 -24 -69 0
2 7 24 69 0
-2 -8 -25 -70 0
2 8 25 70 0
-2 -9 -26 -71 0
2 9 26 71 0
-2 -10 -27 -72 0
2 10 27 72 0
-3 -4 -28 -73 0
3 4 28 73 0
-3 -5 -29 -74 0
3 5 29 74 0
-3 -6 -30 -75 0
3 6 30 75 0
-3 -7 -31 -76 0
3 7 31 76 0
-3 -8 -32 -77 0
3 8 32 77 0
-3 -9 -33 -78 0
3 9 33 78 0
-3 -10 -34 -79 0
3 10 34 79 0
-4 -5 -35 -80 0
4 5 35 80 0
-4 -6 -36 -81 0
4 6 36 81 0
-4 -7 -37 -82 0
4 7 37 82 0
-4 -8 -38 -83 0
4 8 38 83 0
-4 -9 -39 -84 0
4 9 39 84 0
-4 -10 -40 -85 0
4 10 40 85 0
-5 -6 -41 -86 0
5 6 41 86 0
-5 -7 -42 -87 0
5 7 42 87 0
-5 -8 -43 -88 0
5 8 43 88 0
-5 -9 -44 -89 0
5 9 44 89 0
-5 -10 -45 -90 0
5 10 45 90 0
-6 -7 -46 -91 0
6 7 46 91 0
-6 -8 -47 -92 0
6 8 47 92 0
-6 -9 -48 -93 0
6 9 48 93 0
-6 -10 -49 -94 0
6 10 49 94 0
-7 -8 -50 -95 0
7 8 50 95 0
-7 -9 -51 -96 0
7 9 51 96 0
-7 -10 -52 -97 0
7 10 52 97 0
-8 -9 -53 -98 0
8 9 53 98 0
-8 -10 -54 -99 0
8 10 54 99 0
-9 -10 -55 -100 0
9 10 55 100 0
-11 -12 -20 -101 0
11 12 20 101 0
-11 -13 -21 -102 0
11 13 21 102 0
-11 -14 -22 -103 0
11 14 22 103 0
-11 -15 -23 -104 0
11 15 23 104 0
-11 -16 -24 -105 0
11 16 24 105 0
-11 -17 -25 -106 0
11 17 25 106 0
-11 -18 -26 -107 0
11 18 26 107 0
-11 -19 -27 -108 0
11 19 27 108 0
-12 -13 -28 -109 0
12 13 28 109 0
-12 -14 -29 -110 0
12 14 29 110 0
-12 -15 -30 -111 0
12 15 30 111 0
-12 -16 -31 -112 0
12 16 31 112 0
-12 -17 -32 -113 0
12 17 32 113 0
-12 -18 -33 -114 0
12 18 33 114 0
-12 -19 -34 -115 0
12 19 34 115 0
-13 -14 -35 -116 0
13 14 35 116 0
-13 -15 -36 -117 0
13 15 36 117 0
-13 -16 -37 -118 0
13 16 37 118 0
-13 -17 -38 -119 0
13 17 38 119 0
-13 -18 -39 -120 0
13 18 39 120 0
-13 -19 -40 -121 0
13 19 40 121 0
-14 -15 -41 -122 0
14 15 41 122 0
-14 -16 -42 -123 0
14 16 42 123 0
-14 -17 -43 -124 0
14 17 43 124 0
-14 -18 -44 -125 0
14 18 44 125 0
-14 -19 -45 -126 0
14 19 45 126 0
-15 -16 -46 -127 0
15 16 46 127 0
-15 -17 -47 -128 0
15 17 47 128 0
-15 -18 -48 -129 0
15 18 48 129 0
-15 -19 -49 -130 0
15 19 49 130 0
-16 -17 -50 -131 0
16 17 50 131 0
-16 -18 -51 -132 0
16 18 51 132 0
-16 -19 -52 -133 0
16 19 52 133 0
-17 -18 -53 -134 0
17 18 53 134 0
-17 -19 -54 -135 0
17 19 54 135 0
-18 -19 -55 -136 0
18 19 55 136 0
-20 -21 -28 -137 0
20 21 28 137 0
-20 -22 -29 -138 0
20 22 29 138 0
-20 -23 -30 -139 0
20 23 30 139 0
-20 -24 -31 -140 0
20 24 31 140 0
-20 -25 -32 -141 0
20 25 32 141 0
-20 -26 -33 -142 0
20 26 33 142 0
-20 -27 -34 -143 0
20 27 34 143 0
-21 -22 -35 -144 0
21 22 35 144 0
-21 -23 -36 -145 0
21 23 36 145 0
-21 -24 -37 -146 0
21 24 37 146 0
-21 -25 -38 -147 0
21 25 38 147 0
-21 -26 -39 -148 0
21 26 39 148 0
-21 -27 -40 -149 0
21 27 40 149 0
-22 -23 -41 -150 0
22 23 41 150 0
-22 -24 -42 -151 0
22 24 42 151 0
-22 -25 -43 -152 0
22 25 43 152 0
-22 -26 -44 -153 0
22 26 44 153 0
-22 -27 -45 -154 0
22 27 45 154 0
-23 -24 -46 -155 0
23 24 46 155 0
-23 -25 -47 -156 0
23 25 47 156 0
-23 -26 -48 -157 0
23 26 48 157 0
-23 -27 -49 -158 0
23 27 49 158 0
-24 -25 -50 -159 0
24 25 50 159 0
-24 -26 -51 -160 0
24 26 51 160 0
-24 -27 -52 -161 0
24 27 52 161 0
-25 -26 -53 -162 0
25 26 53 162 0
-25 -27 -54 -163 0
25 27 54 163 0
-26 -27 -55 -164 0
26 27 55 164 0
-28 -29 -35 -165 0
28 29 35 165 0
-28 -30 -36 -166 0
28 30 36 166 0
-28 -31 -37 -167 0
28 31 37 167 0
-28 -32 -38 -168 0
28 32 38 168 0
-28 -33 -39 -169 0
28 33 39 169 0
-28 -34 -40 -170 0
28 34 40 170 0
-29 -30 -41 -171 0
29 30 41 171 0
-29 -31 -42 -172 0
29 31 42 172 0
-29 -32 -43 -173 0
29 32 43 173 0
-29 -33 -44 -174 0
29 33 44 174 0
-29 -34 -45 -175 0
29 34 45 175 0
-30 -31 -46 -176 0
30 31 46 176 0
-30 -32 -47 -177 0
30 32 47 177 0
-30 -33 -48 -178 0
30 33 48 178 0
-30 -34 -49 -179 0
30 34 49 179 0
-31 -32 -50 -180 0
31 32 50 180 0
-31 -33 -51 -181 0
31 33 51 181 0
-31 -34 -52 -182 0
31 34 52 182 0
-32 -33 -53 -183 0
32 33 53 183 0
-32 -34 -54 -184 0
32 34 54 184 0
-33 -34 -55 -185 0
33 34 55 185 0
-35 -36 -41 -186 0
35 36 41 186 0
-35 -37 -42 -187 0
35 37 42 187 0
-35 -38 -43 -188 0
35 38 43 188 0
-35 -39 -44 -189 0
35 39 44 189 0
-35 -40 -45 -190 0
35 40 45 190 0
-36 -37 -46 -191 0
36 37 46 191 0
-36 -38 -47 -192 0
36 38 47 192 0
-36 -39 -48 -193 0
36 39 48 193 0
-36 -40 -49 -194 0
36 40 49 194 0
-37 -38 -50 -195 0
37 38 50 195 0
-37 -39 -51 -196 0
37 39 51 196 0
-37 -40 -52 -197 0
37 40 52 197 0
-38 -39 -53 -198 0
38 39 53 198 0
-38 -40 -54 -199 0
38 40 54 199 0
-39 -40 -55 -200 0
39 40 55 200 0
-41 -42 -46 -201 0
41 42 46 201 0
-41 -43 -47 -202 0
41 43 47 202 0
-41 -44 -48 -203 0
41 44 48 203 0
-41 -45 -49 -204 0
41 45 49 204 0
-42 -43 -50 -205 0
42 43 50 205 0
-42 -44 -51 -206 0
42 44 51 206 0
-42 -45 -52 -207 0
42 45 52 207 0
-43 -44 -53 -208 0
43 44 53 208 0
-43 -45 -54 -209 0
43 45 54 209 0
-44 -45 -55 -210 0
44 45 55 210 0
-46 -47 -50 -211 0
46 47 50 211 0
-46 -48 -51 -212 0
46 48 51 212 0
-46 -49 -52 -213 0
46 49 52 213 0
-47 -48 -53 -214 0
47 48 53 214 0
-47 -49 -54 -215 0
47 49 54 215 0
-48 -49 -55 -216 0
48 49 55 216 0
-50 -51 -53 -217 0
50 51 53 217 0
-50 -52 -54 -218 0
50 52 54 218 0
-51 -52 -55 -219 0
51 52 55 219 0
-53 -54 -55 -220 0
53 54 55 220 0
-56 -57 -65 -101 0
56 57 65 101 0
-56 -58 -66 -102 0
56 58 66 102 0
-56 -59 -67 -103 0
56 59 67 103 0
-56 -60 -68 -104 0
56 60 68 104 0
-56 -61 -69 -105 0
56 61 69 105 0
-56 -62 -70 -106 0
56 62 70 106 0
-56 -63 -71 -107 0
56 63 71 107 0
-56 -64 -72 -108 0
56 64 72 108 0
-57 -58 -73 -109 0
57 58 73 109 0
-57 -59 -74 -110 0
57 59 74 110 0
-57 -60 -75 -111 0
57 60 75 111 0
-57 -61 -76 -112 0
57 61 76 112 0
-57 -62 -77 -113 0
57 62 77 113 0
-57 -63 -78 -114 0
57 63 78 114 0
-57 -64 -79 -115 0
57 64 79 115 0
-58 -59 -80 -116 0
58 59 80 116 0
-58 -60 -81 -117 0
58 60 81 117 0
-58 -61 -82 -118 0
58 61 82 118 0
-58 -62 -83 -119 0
58 62 83 119 0
-58 -63 -84 -120 0
58 63 84 120 0
-58 -64 -85 -121 0
58 64 85 121 0
-59 -60 -86 -122 0
59 60 86 122 0
-59 -61 -87 -123 0
59 61 87 123 0
-59 -62 -88 -124 0
59 62 88 124 0
-59 -63 -89 -125 0
59 63 89 125 0
-59 -64 -90 -126 0
59 64 90 126 0
-60 -61 -91 -127 0
60 61 91 127 0
-60 -62 -92 -128 0
60 62 92 128 0
-60 -63 -93 -129 0
60 63 93 129 0
-60 -64 -94 -130 0
60 64 94 130 0
-61 -62 -95 -131 0
61 62 95 131 0
-61 -63 -96 -132 0
61 63 96 132 0
-61 -64 -97 -133 0
61 64 97 133 0
-62 -63 -98 -134 0
62 63 98 134 0
-62 -64 -99 -135 0
62 64 99 135 0
-63 -64 -100 -136 0
63 64 100 136 0
-65 -66 -73 -137 0
65 66 73 137 0
-65 -67 -74 -138 0
65 67 74 138 0
-65 -68 -75 -139 0
65 68 75 139 0
-65 -69 -76 -140 0
65 69 76 140 0
-65 -70 -77 -141 0
65 70 77 141 0
-65 -71 -78 -142 0
65 71 78 142 0
-65 -72 -79 -143 0
65 72 79 143 0
-66 -67 -80 -144 0
66 67 80 144 0
-66 -68 -81 -145 0
66 68 81 145 0
-66 -69 -82 -146 0
66 69 82 146 0
-66 -70 -83 -147 0
66 70 83 147 0
-66 -71 -84 -148 0
66 71 84 148 0
-66 -72 -85 -149 0
66 72 85 149 0
-67 -68 -86 -150 0
67 68 86 150 0
-67 -69 -87 -151 0
67 69 87 151 0
-67 -70 -88 -152 0
67 70 88 152 0
-67 -71 -89 -153 0
67 71 89 153 0
-67 -72 -90 -154 0
67 72 90 154 0
-68 -69 -91 -155 0
68 69 91 155 0
-68 -70 -92 -156 0
68 70 92 156 0
-68 -71 -93 -157 0
68 71 93 157 0
-68 -72 -94 -158 0
68 72 94 158 0
-69 -70 -95 -159 0
69 70 95 159 0
-69 -71 -96 -160 0
69 71 96 160 0
-69 -72 -97 -161 0
69 72 97 161 0
-70 -71 -98 -162 0
70 71 98 162 0
-70 -72 -99 -163 0
70 72 99 163 0
-71 -72 -100 -164 0
71 72 100 164 0
-73 -74 -80 -165 0
73 74 80 165 0
-73 -75 -81 -166 0
73 75 81 166 0
-73 -76 -82 -167 0
73 76 82 167 0
-73 -77 -83 -168 0
73 77 83 168 0
-73 -78 -84 -169 0
73 78 84 169 0
-73 -79 -85 -170 0
73 79 85 170 0
-74 -75 -86 -171 0
74 75 86 171 0
-74 -76 -87 -172 0
74 76 87 172 0
-74 -77 -88 -173 0
74 77 88 173 0
-74 -78 -89 -174 0
74 78 89 174 0
-74 -79 -90 -175 0
74 79 90 175 0
-75 -76 -91 -176 0
75 76 91 176 0
-75 -77 -92 -177 0
75 77 92 177 0
-75 -78 -93 -178 0
75 78 93 178 0
-75 -79 -94 -179 0
75 79 94 179 0
-76 -77 -95 -180 0
76 77 95 180 0
-76 -78 -96 -181 0
76 78 96 181 0
-76 -79 -97 -182 0
76 79 97 182 0
-77 -78 -98 -183 0
77 78 98 183 0
-77 -79 -99 -184 0
77 79 99 184 0
-78 -79 -100 -185 0
78 79 100 185 0
-80 -81 -86 -186 0
80 81 86 186 0
-80 -82 -87 -187 0
80 82 87 187 0
-80 -83 -88 -188 0
80 83 88 188 0
-80 -84 -89 -189 0
80 84 89 189 0
-80 -85 -90 -190 0
80 85 90 190 0
-81 -82 -91 -191 0
81 82 91 191 0
-81 -83 -92 -192 0
81 83 92 192 0
-81 -84 -93 -193 0
81 84 93 193 0
-81 -85 -94 -194 0
81 85 94 194 0
-82 -83 -95 -195 0
82 83 95 195 0
-82 -84 -96 -196 0
82 84 96 196 0
-82 -85 -97 -197 0
82 85 97 197 0
-83 -84 -98 -198 0
83 84 98 198 0
-83 -85 -99 -199 0
83 85 99 199 0
-84 -85 -100 -200 0
84 85 100 200 0
-86 -87 -91 -201 0
86 87 91 201 0
-86 -88 -92 -202 0
86 88 92 202 0
-86 -89 -93 -203 0
86 89 93 203 0
-86 -90 -94 -204 0
86 90 94 204 0
-87 -88 -95 -205 0
87 88 95 205 0
-87 -89 -96 -206 0
87 89 96 206 0
-87 -90 -97 -207 0
87 90 97 207 0
-88 -89 -98 -208 0
88 89 98 208 0
-88 -90 -99 -209 0
88 90 99 209 0
-89 -90 -100 -210 0
89 90 100 210 0
-91 -92 -95 -211 0
91 92 95 211 0
-91 -93 -96 -212 0
91 93 96 212 0
-91 -94 -97 -213 0
91 94 97 213 0
-92 -93 -98 -214 0
92 93 98 214 0
-92 -94 -99 -215 0
92 94 99 215 0
-93 -94 -100 -216 0
93 94 100 216 0
-95 -96 -98 -217 0
95 96 98 217 0
-95 -97 -99 -218 0
95 97 99 218 0
-96 -97 -100 -219 0
96 97 100 219 0
-98 -99 -100 -220 0
98 99 100 220 0
-101 -102 -109 -137 0
101 102 109 137 0
-101 -103 -110 -138 0
101 103 110 138 0
-101 -104 -111 -139 0
101 104 111 139 0
-101 -105 -112 -140 0
101 105 112 140 0
-101 -106 -113 -141 0
101 106 113 141 0
-101 -107 -114 -142 0
101 107 114 142 0
-101 -108 -115 -143 0
101 108 115 143 0
-102 -103 -116 -144 0
102 103 116 144 0
-102 -104 -117 -145 0
102 104 117 145 0
-102 -105 -118 -146 0
102 105 118 146 0
-102 -106 -119 -147 0
102 106 119 147 0
-102 -107 -120 -148 0
102 107 120 148 0
-102 -108 -121 -149 0
102 108 121 149 0
-103 -104 -122 -150 0
103 104 122 150 0
-103 -105 -123 -151 0
103 105 123 151 0
-103 -106 -124 -152 0
103 106 124 152 0
-103 -107 -125 -153 0
103 107 125 153 0
-103 -108 -126 -154 0
103 108 126 154 0
-104 -105 -127 -155 0
104 105 127 155 0
-104 -106 -128 -156 0
104 106 128 156 0
-104 -107 -129 -157 0
104 107 129 157 0
-104 -108 -130 -158 0
104 108 130 158 0
-105 -106 -131 -159 0
105 106 131 159 0
-105 -107 -132 -160 0
105 107 132 160 0
-105 -108 -133 -161 0
105 108 133 161 0
-106 -107 -134 -162 0
106 107 134 162 0
-106 -108 -135 -163 0
106 108 135 163 0
-107 -108 -136 -164 0
107 108 136 164 0
-109 -110 -116 -165 0
109 110 116 165 0
-109 -111 -117 -166 0
109 111 117 166 0
-109 -112 -118 -167 0
109 112 118 167 0
-109 -113 -119 -168 0
109 113 119 168 0
-109 -114 -120 -169 0
109 114 120 169 0
-109 -115 -121 -170 0
109 115 121 170 0
-110 -111 -122 -171 0
110 111 122 171 0
-110 -112 -123 -172 0
110 112 123 172 0
-110 -113 -124 -173 0
110 113 124 173 0
-110 -114 -125 -174 0
110 114 125 174 0
-110 -115 -126 -175 0
110 115 126 175 0
-111 -112 -127 -176 0
111 112 127 176 0
-111 -113 -128 -177 0
111 113 128 177 0
-111 -114 -129 -178 0
111 114 129 178 0
-111 -115 -130 -179 0
111 115 130 179 0
-112 -113 -131 -180 0
112 113 131 180 0
-112 -114 -132 -181 0
112 114 132 181 0
-112 -115 -133 -182 0
112 115 133 182 0
-113 -114 -134 -183 0
113 114 134 183 0
-113 -115 -135 -184 0
113 115 135 184 0
-114 -115 -136 -185 0
114 115 136 185 0
-116 -117 -122 -186 0
116 117 122 186 0
-116 -118 -123 -187 0
116 118 123 187 0
-116 -119 -124 -188 0
116 119 124 188 0
-116 -120 -125 -189 0
116 120 125 189 0
-116 -121 -126 -190 0
116 121 126 190 0
-117 -118 -127 -191 0
117 118 127 191 0
-117 -119 -128 -192 0
117 119 128 192 0
-117 -120 -129 -193 0
117 120 129 193 0
-117 -121 -130 -194 0
117 121 130 194 0
-118 -119 -131 -195 0
118 119 131 195 0
-118 -120 -132 -196 0
118 120 132 196 0
-118 -121 -133 -197 0
118 121 133 197 0
-119 -120 -134 -198 0
119 120 134 198 0
-119 -121 -135 -199 0
119 121 135 199 0
-120 -121 -136 -200 0
120 121 136 200 0
-122 -123 -127 -201 0
122 123 127 201 0
-122 -124 -128 -202 0
122 124 128 202 0
-122 -125 -129 -203 0
122 125 129 203 0
-122 -126 -130 -204 0
122 126 130 204 0
-123 -124 -131 -205 0
123 124 131 205 0
-123 -125 -132 -206 0
123 125 132 206 0
-123 -126 -133 -207 0
123 126 133 207 0
-124 -125 -134 -208 0
124 125 134 208 0
-124 -126 -135 -209 0
124 126 135 209 0
-125 -126 -136 -210 0
125 126 136 210 0
-127 -128 -131 -211 0
127 128 131 211 0
-127 -129 -132 -212 0
127 129 132 212 0
-127 -130 -133 -213 0
127 130 133 213 0
-128 -129 -134 -214 0
128 129 134 214 0
-128 -130 -135 -215 0
128 130 135 215 0
-129 -130 -136 -216 0
129 130 136 216 0
-131 -132 -134 -217 0
131 132 134 217 0
-131 -133 -135 -218 0
131 133 135 218 0
-132 -133 -136 -219 0
132 133 136 219 0
-134 -135 -136 -220 0
134 135 136 220 0
-137 -138 -144 -165 0
137 138 144 165 0
-137 -139 -145 -166 0
137 139 145 166 0
-137 -140 -146 -167 0
137 140 146 167 0
-137 -141 -147 -168 0
137 141 147 168 0
-137 -142 -148 -169 0
137 142 148 169 0
-137 -143 -149 -170 0
137 143 149 170 0
-138 -139 -150 -171 0
138 139 150 171 0
-138 -140 -151 -172 0
138 140 151 172 0
-138 -141 -152 -173 0
138 141 152 173 0
-138 -142 -153 -174 0
138 142 153 174 0
-138 -143 -154 -175 0
138 143 154 175 0
-139 -140 -155 -176 0
139 140 155 176 0
-139 -141 -156 -177 0
139 141 156 177 0
-139 -142 -157 -178 0
139 142 157 178 0
-139 -143 -158 -179 0
139 143 158 179 0
-140 -141 -159 -180 0
140 141 159 180 0
-140 -142 -160 -181 0
140 142 160 181 0
-140 -143 -161 -182 0
140 143 161 182 0
-141 -142 -162 -183 0
141 142 162 183 0
-141 -143 -163 -184 0
141 143 163 184 0
-142 -143 -164 -185 0
142 143 164 185 0
-144 -145 -150 -186 0
144 145 150 186 0
-144 -146 -151 -187 0
144 146 151 187 0
-144 -147 -152 -188 0
144 147 152 188 0
-144 -148 -153 -189 0
144 148 153 189 0
-144 -149 -154 -190 0
144 149 154 190 0
-145 -146 -155 -191 0
145 146 155 191 0
-145 -147 -156 -192 0
145 147 156 192 0
-145 -148 -157 -193 0
145 148 157 193 0
-145 -149 -158 -194 0
145 149 158 194 0
-146 -147 -159 -195 0
146 147 159 195 0
-146 -148 -160 -196 0
146 148 160 196 0
-146 -149 -161 -197 0
146 149 161 197 0
-147 -148 -162 -198 0
147 148 162 198 0
-147 -149 -163 -199 0
147 149 163 199 0
-148 -149 -164 -200 0
148 149 164 200 0
-150 -151 -155 -201 0
150 151 155 201 0
-150 -152 -156 -202 0
150 152 156 202 0
-150 -153 -157 -203 0
150 153 157 203 0
-150 -154 -158 -204 0
150 154 158 204 0
-151 -152 -159 -205 0
151 152 159 205 0
-151 -153 -160 -206 0
151 153 160 206 0
-151 -154 -161 -207 0
151 154 161 207 0
-152 -153 -162 -208 0
152 153 162 208 0
-152 -154 -163 -209 0
152 154 163 209 0
-153 -154 -164 -210 0
153 154 164 210 0
-155 -156 -159 -211 0
155 156 159 211 0
-155 -157 -160 -212 0
155 157 160 212 0
-155 -158 -161 -213 0
155 158 161 213 0
-156 -157 -162 -214 0
156 157 162 214 0
-156 -158 -163 -215 0
156 158 163 215 0
-157 -158 -164 -216 0
157 158 164 216 0
-159 -160 -162 -217 0
159 160 162 217 0
-159 -161 -163 -218 0
159 161 163 218 0
-160 -161 -164 -219 0
160 161 164 219 0
-162 -163 -164 -220 0
162 163 164 220 0
-165 -166 -171 -186 0
165 166 171 186 0
-165 -167 -172 -187 0
165 167 172 187 0
-165 -168 -173 -188 0
165 168 173 188 0
-165 -169 -174 -189 0
165 169 174 189 0
-165 -170 -175 -190 0
165 170 175 190 0
-166 -167 -176 -191 0
166 167 176 191 0
-166 -168 -177 -192 0
166 168 177 192 0
-166 -169 -178 -193 0
166 169 178 193 0
-166 -170 -179 -194 0
166 170 179 194 0
-167 -168 -180 -195 0
167 168 180 195 0
-167 -169 -181 -196 0
167 169 181 196 0
-167 -170 -182 -197 0
167 170 182 197 0
-168 -169 -183 -198 0
168 169 183 198 0
-168 -170 -184 -199 0
168 170 184 199 0
-169 -170 -185 -200 0
169 170 185 200 0
-171 -172 -176 -201 0
171 172 176 201 0
-171 -173 -177 -202 0
171 173 177 202 0
-171 -174 -178 -203 0
171 174 178 203 0
-171 -175 -179 -204 0
171 175 179 204 0
-172 -173 -180 -205 0
172 173 180 205 0
-172 -174 -181 -206 0
172 174 181 206 0
-172 -175 -182 -207 0
172 175 182 207 0
-173 -174 -183 -208 0
173 174 183 208 0
-173 -175 -184 -209 0
173 175 184 209 0
-174 -175 -185 -210 0
174 175 185 210 0
-176 -177 -180 -211 0
176 177 180 211 0
-176 -178 -181 -212 0
176 178 181 212 0
-176 -179 -182 -213 0
176 179 182 213 0
-177 -178 -183 -214 0
177 178 183 214 0
-177 -179 -184 -215 0
177 179 184 215 0
-178 -179 -185 -216 0
178 179 185 216 0
-180 -181 -183 -217 0
180 181 183 217 0
-180 -182 -184 -218 0
180 182 184 218 0
-181 -182 -185 -219 0
181 182 185 219 0
-183 -184 -185 -220 0
183 184 185 220 0
-186 -187 -191 -201 0
186 187 191 201 0
-186 -188 -192 -202 0
186 188 192 202 0
-186 -189 -193 -203 0
186 189 193 203 0
-186 -190 -194 -204 0
186 190 194 204 0
-187 -188 -195 -205 0
187 188 195 205 0
-187 -189 -196 -206 0
187 189 196 206 0
-187 -190 -197 -207 0
187 190 197 207 0
-188 -189 -198 -208 0
188 189 198 208 0
-188 -190 -199 -209 0
188 190 199 209 0
-189 -190 -200 -210 0
189 190 200 210 0
-191 -192 -195 -211 0
191 192 195 211 0
-191 -193 -196 -212 0
191 193 196 212 0
-191 -194 -197 -213 0
191 194 197 213 0
-192 -193 -198 -214 0
192 193 198 214 0
-192 -194 -199 -215 0
192 194 199 215 0
-193 -194 -200 -216 0
193 194 200 216 0
-195 -196 -198 -217 0
195 196 198 217 0
-195 -197 -199 -218 0
195 197 199 218 0
-196 -197 -200 -219 0
196 197 200 219 0
-198 -199 -200 -220 0
198 199 200 220 0
-201 -202 -205 -211 0
201 202 205 211 0
-201 -203 -206 -212 0
201 203 206 212 0
-201 -204 -207 -213 0
201 204 207 213 0
-202 -203 -208 -214 0
202 203 208 214 0
-202 -204 -209 -215 0
202 204 209 215 0
-203 -204 -210 -216 0
203 204 210 216 0
-205 -206 -208 -217 0
205 206 208 217 0
-205 -207 -209 -218 0
205 207 209 218 0
-206 -207 -210 -219 0
206 207 210 219 0
-208 -209 -210 -220 0
208 209 210 220 0
-211 -212 -214 -217 0
211 212 214 217 0
-211 -213 -215 -218 0
211 213 215 218 0
-212 -213 -216 -219 0
212 213 216 219 0
-214 -215 -216 -220 0
214 215 216 220 0
-217 -218 -219 -220 0
217 218 219 220 0
