c r_3(4) > 13 ?  SAT => yes (witness colouring); UNSAT => r_3(4) <= 13
p cnf 286 1430
-1 -2 -12 -67 0
1 2 12 67 0
-1 -3 -13 -68 0
1 3 13 68 0
-1 -4 -14 -69 0
1 4 14 69 0
-1 -5 -15 -70 0
1 5 15 70 0
-1 -6 -16 -71 0
1 6 16 71 0
-1 -7 -17 -72 0
1 7 17 72 0
-1 -8 -18 -73 0
1 8 18 73 0
-1 -9 -19 -74 0
1 9 19 74 0
-1 -10 -20 -75 0
1 10 20 75 0
-1 -11 -21 -76 0
1 11 21 76 0
-2 -3 -22 -77 0
2 3 22 77 0
-2 -4 -23 -78 0
2 4 23 78 0
-2 -5 -24 -79 0
2 5 24 79 0
-2 -6 -25 -80 0
2 6 25 80 0
-2 -7 -26 -81 0
2 7 26 81 0
-2 -8 -27 -82 0
2 8 27 82 0
-2 -9 -28 -83 0
2 9 28 83 0
-2 -10 -29 -84 0
2 10 29 84 0
-2 -11 -30 -85 0
2 11 30 85 0
-3 -4 -31 -86 0
3 4 31 86 0
-3 -5 -32 -87 0
3 5 32 87 0
-3 -6 -33 -88 0
3 6 33 88 0
-3 -7 -34 -89 0
3 7 34 89 0
-3 -8 -35 -90 0
3 8 35 90 0
-3 -9 -36 -91 0
3 9 36 91 0
-3 -10 -37 -92 0
3 10 37 92 0
-3 -11 -38 -93 0
3 11 38 93 0
-4 -5 -39 -94 0
4 5 39 94 0
-4 -6 -40 -95 0
4 6 40 95 0
-4 -7 -41 -96 0
4 7 41 96 0
-4 -8 -42 -97 0
4 8 42 97 0
-4 -9 -43 -98 0
4 9 43 98 0
-4 -10 -44 -99 0
4 10 44 99 0
-4 -11 -45 -100 0
4 11 45 100 0
-5 -6 -46 -101 0
5 6 46 101 0
-5 -7 -47 -102 0
5 7 47 102 0
-5 -8 -48 -103 0
5 8 48 103 0
-5 -9 -49 -104 0
5 9 49 104 0
-5 -10 -50 -105 0
5 10 50 105 0
-5 -11 -51 -106 0
5 11 51 106 0
-6 -7 -52 -107 0
6 7 52 107 0
-6 -8 -53 -108 0
6 8 53 108 0
-6 -9 -54 -109 0
6 9 54 109 0
-6 -10 -55 -110 0
6 10 55 110 0
-6 -11 -56 -111 0
6 11 56 111 0
-7 -8 -57 -112 0
7 8 57 112 0
-7 -9 -58 -113 0
7 9 58 113 0
-7 -10 -59 -114 0
7 10 59 114 0
-7 -11 -60 -115 0
7 11 60 115 0
-8 -9 -61 -116 0
8 9 61 116 0
-8 -10 -62 -117 0
8 10 62 117 0
-8 -11 -63 -118 0
8 11 63 118 0
-9 -10 -64 -119 0
9 10 64 119 0
-9 -11 -65 -120 0
9 11 65 120 0
-10 -11 -66 -121 0
10 11 66 121 0
-12 -13 -22 -122 0
12 13 22 122 0
-12 -14 -23 -123 0
12 14 23 123 0
-12 -15 -24 -124 0
12 15 24 124 0
-12 -16 -25 -125 0
12 16 25 125 0
-12 -17 -26 -126 0
12 17 26 126 0
-12 -18 -27 -127 0
12 18 27 127 0
-12 -19 -28 -128 0
12 19 28 128 0
-12 -20 -29 -129 0
12 20 29 129 0
-12 -21 -30 -130 0
12 21 30 130 0
-13 -14 -31 -131 0
13 14 31 131 0
-13 -15 -32 -132 0
13 15 32 132 0
-13 -16 -33 -133 0
13 16 33 133 0
-13 -17 -34 -134 0
13 17 34 134 0
-13 -18 -35 -135 0
13 18 35 135 0
-13 -19 -36 -136 0
13 19 36 136 0
-13 -20 -37 -137 0
13 20 37 137 0
-13 -21 -38 -138 0
13 21 38 138 0
-14 -15 -39 -139 0
14 15 39 139 0
-14 -16 -40 -140 0
14 16 40 140 0
-14 -17 -41 -141 0
14 17 41 141 0
-14 -18 -42 -142 0
14 18 42 142 0
-14 -19 -43 -143 0
14 19 43 143 0
-14 -20 -44 -144 0
14 20 44 144 0
-14 -21 -45 -145 0
14 21 45 145 0
-15 -16 -46 -146 0
15 16 46 146 0
-15 -17 -47 -147 0
15 17 47 147 0
-15 -18 -48 -148 0
15 18 48 148 0
-15 -19 -49 -149 0
15 19 49 149 0
-15 -20 -50 -150 0
15 20 50 150 0
-15 -21 -51 -151 0
15 21 51 151 0
-16 -17 -52 -152 0
16 17 52 152 0
-16 -18 -53 -153 0
16 18 53 153 0
-16 -19 -54 -154 0
16 19 54 154 0
-16 -20 -55 -155 0
16 20 55 155 0
-16 -21 -56 -156 0
16 21 56 156 0
-17 -18 -57 -157 0
17 18 57 157 0
-17 -19 -58 -158 0
17 19 58 158 0
-17 -20 -59 -159 0
17 20 59 159 0
-17 -21 -60 -160 0
17 21 60 160 0
-18 -19 -61 -161 0
18 19 61 161 0
-18 -20 -62 -162 0
18 20 62 162 0
-18 -21 -63 -163 0
18 21 63 163 0
-19 -20 -64 -164 0
19 20 64 164 0
-19 -21 -65 -165 0
19 21 65 165 0
-20 -21 -66 -166 0
20 21 66 166 0
-22 -23 -31 -167 0
22 23 31 167 0
-22 -24 -32 -168 0
22 24 32 168 0
-22 -25 -33 -169 0
22 25 33 169 0
-22 -26 -34 -170 0
22 26 34 170 0
-22 -27 -35 -171 0
22 27 35 171 0
-22 -28 -36 -172 0
22 28 36 172 0
-22 -29 -37 -173 0
22 29 37 173 0
-22 -30 -38 -174 0
22 30 38 174 0
-23 -24 -39 -175 0
23 24 39 175 0
-23 -25 -40 -176 0
23 25 40 176 0
-23 -26 -41 -177 0
23 26 41 177 0
-23 -27 -42 -178 0
23 27 42 178 0
-23 -28 -43 -179 0
23 28 43 179 0
-23 -29 -44 -180 0
23 29 44 180 0
-23 -30 -45 -181 0
23 30 45 181 0
-24 -25 -46 -182 0
24 25 46 182 0
-24 -26 -47 -183 0
24 26 47 183 0
-24 -27 -48 -184 0
24 27 48 184 0
-24 -28 -49 -185 0
24 28 49 185 0
-24 -29 -50 -186 0
24 29 50 186 0
-24 -30 -51 -187 0
24 30 51 187 0
-25 -26 -52 -188 0
25 26 52 188 0
-25 -27 -53 -189 0
25 27 53 189 0
-25 -28 -54 -190 0
25 28 54 190 0
-25 -29 -55 -191 0
25 29 55 191 0
-25 -30 -56 -192 0
25 30 56 192 0
-26 -27 -57 -193 0
26 27 57 193 0
-26 -28 -58 -194 0
26 28 58 194 0
-26 -29 -59 -195 0
26 29 59 195 0
-26 -30 -60 -196 0
26 30 60 196 0
-27 -28 -61 -197 0
27 28 61 197 0
-27 -29 -62 -198 0
27 29 62 198 0
-27 -30 -63 -199 0
27 30 63 199 0
-28 -29 -64 -200 0
28 29 64 200 0
-28 -30 -65 -201 0
28 30 65 201 0
-29 -30 -66 -202 0
29 30 66 202 0
-31 -32 -39 -203 0
31 32 39 203 0
-31 -33 -40 -204 0
31 33 40 204 0
-31 -34 -41 -205 0
31 34 41 205 0
-31 -35 -42 -206 0
31 35 42 206 0
-31 -36 -43 -207 0
31 36 43 207 0
-31 -37 -44 -208 0
31 37 44 208 0
-31 -38 -45 -209 0
31 38 45 209 0
-32 -33 -46 -210 0
32 33 46 210 0
-32 -34 -47 -211 0
32 34 47 211 0
-32 -35 -48 -212 0
32 35 48 212 0
-32 -36 -49 -213 0
32 36 49 213 0
-32 -37 -50 -214 0
32 37 50 214 0
-32 -38 -51 -215 0
32 38 51 215 0
-33 -34 -52 -216 0
33 34 52 216 0
-33 -35 -53 -217 0
33 35 53 217 0
-33 -36 -54 -218 0
33 36 54 218 0
-33 -37 -55 -219 0
33 37 55 219 0
-33 -38 -56 -220 0
33 38 56 220 0
-34 -35 -57 -221 0
34 35 57 221 0
-34 -36 -58 -222 0
34 36 58 222 0
-34 -37 -59 -223 0
34 37 59 223 0
-34 -38 -60 -224 0
34 38 60 224 0
-35 -36 -61 -225 0
35 36 61 225 0
-35 -37 -62 -226 0
35 37 62 226 0
-35 -38 -63 -227 0
35 38 63 227 0
-36 -37 -64 -228 0
36 37 64 228 0
-36 -38 -65 -229 0
36 38 65 229 0
-37 -38 -66 -230 0
37 38 66 230 0
-39 -40 -46 -231 0
39 40 46 231 0
-39 -41 -47 -232 0
39 41 47 232 0
-39 -42 -48 -233 0
39 42 48 233 0
-39 -43 -49 -234 0
39 43 49 234 0
-39 -44 -50 -235 0
39 44 50 235 0
-39 -45 -51 -236 0
39 45 51 236 0
-40 -41 -52 -237 0
40 41 52 237 0
-40 -42 -53 -238 0
40 42 53 238 0
-40 -43 -54 -239 0
40 43 54 239 0
-40 -44 -55 -240 0
40 44 55 240 0
-40 -45 -56 -241 0
40 45 56 241 0
-41 -42 -57 -242 0
41 42 57 242 0
-41 -43 -58 -243 0
41 43 58 243 0
-41 -44 -59 -244 0
41 44 59 244 0
-41 -45 -60 -245 0
41 45 60 245 0
-42 -43 -61 -246 0
42 43 61 246 0
-42 -44 -62 -247 0
42 44 62 247 0
-42 -45 -63 -248 0
42 45 63 248 0
-43 -44 -64 -249 0
43 44 64 249 0
-43 -45 -65 -250 0
43 45 65 250 0
-44 -45 -66 -251 0
44 45 66 251 0
-46 -47 -52 -252 0
46 47 52 252 0
-46 -48 -53 -253 0
46 48 53 253 0
-46 -49 -54 -254 0
46 49 54 254 0
-46 -50 -55 -255 0
46 50 55 255 0
-46 -51 -56 -256 0
46 51 56 256 0
-47 -48 -57 -257 0
47 48 57 257 0
-47 -49 -58 -258 0
47 49 58 258 0
-47 -50 -59 -259 0
47 50 59 259 0
-47 -51 -60 -260 0
47 51 60 260 0
-48 -49 -61 -261 0
48 49 61 261 0
-48 -50 -62 -262 0
48 50 62 262 0
-48 -51 -63 -263 0
48 51 63 263 0
-49 -50 -64 -264 0
49 50 64 264 0
-49 -51 -65 -265 0
49 51 65 265 0
-50 -51 -66 -266 0
50 51 66 266 0
-52 -53 -57 -267 0
52 53 57 267 0
-52 -54 -58 -268 0
52 54 58 268 0
-52 -55 -59 -269 0
52 55 59 269 0
-52 -56 -60 -270 0
52 56 60 270 0
-53 -54 -61 -271 0
53 54 61 271 0
-53 -55 -62 -272 0
53 55 62 272 0
-53 -56 -63 -273 0
53 56 63 273 0
-54 -55 -64 -274 0
54 55 64 274 0
-54 -56 -65 -275 0
54 56 65 275 0
-55 -56 -66 -276 0
55 56 66 276 0
-57 -58 -61 -277 0
57 58 61 277 0
-57 -59 -62 -278 0
57 59 62 278 0
-57 -60 -63 -279 0
57 60 63 279 0
-58 -59 -64 -280 0
58 59 64 280 0
-58 -60 -65 -281 0
58 60 65 281 0
-59 -60 -66 -282 0
59 60 66 282 0
-61 -62 -64 -283 0
61 62 64 283 0
-61 -63 -65 -284 0
61 63 65 284 0
-62 -63 -66 -285 0
62 63 66 285 0
-64 -65 -66 -286 0
64 65 66 286 0
-67 -68 -77 -122 0
67 68 77 122 0
-67 -69 -78 -123 0
67 69 78 123 0
-67 -70 -79 -124 0
67 70 79 124 0
-67 -71 -80 -125 0
67 71 80 125 0
-67 -72 -81 -126 0
67 72 81 126 0
-67 -73 -82 -127 0
67 73 82 127 0
-67 -74 -83 -128 0
67 74 83 128 0
-67 -75 -84 -129 0
67 75 84 129 0
-67 -76 -85 -130 0
67 76 85 130 0
-68 -69 -86 -131 0
68 69 86 131 0
-68 -70 -87 -132 0
68 70 87 132 0
-68 -71 -88 -133 0
68 71 88 133 0
-68 -72 -89 -134 0
68 72 89 134 0
-68 -73 -90 -135 0
68 73 90 135 0
-68 -74 -91 -136 0
68 74 91 136 0
-68 -75 -92 -137 0
68 75 92 137 0
-68 -76 -93 -138 0
68 76 93 138 0
-69 -70 -94 -139 0
69 70 94 139 0
-69 -71 -95 -140 0
69 71 95 140 0
-69 -72 -96 -141 0
69 72 96 141 0
-69 -73 -97 -142 0
69 73 97 142 0
-69 -74 -98 -143 0
69 74 98 143 0
-69 -75 -99 -144 0
69 75 99 144 0
-69 -76 -100 -145 0
69 76 100 145 0
-70 -71 -101 -146 0
70 71 101 146 0
-70 -72 -102 -147 0
70 72 102 147 0
-70 -73 -103 -148 0
70 73 103 148 0
-70 -74 -104 -149 0
70 74 104 149 0
-70 -75 -105 -150 0
70 75 105 150 0
-70 -76 -106 -151 0
70 76 106 151 0
-71 -72 -107 -152 0
71 72 107 152 0
-71 -73 -108 -153 0
71 73 108 153 0
-71 -74 -109 -154 0
71 74 109 154 0
-71 -75 -110 -155 0
71 75 110 155 0
-71 -76 -111 -156 0
71 76 111 156 0
-72 -73 -112 -157 0
72 73 112 157 0
-72 -74 -113 -158 0
72 74 113 158 0
-72 -75 -114 -159 0
72 75 114 159 0
-72 -76 -115 -160 0
72 76 115 160 0
-73 -74 -116 -161 0
73 74 116 161 0
-73 -75 -117 -162 0
73 75 117 162 0
-73 -76 -118 -163 0
73 76 118 163 0
-74 -75 -119 -164 0
74 75 119 164 0
-74 -76 -120 -165 0
74 76 120 165 0
-75 -76 -121 -166 0
75 76 121 166 0
-77 -78 -86 -167 0
77 78 86 167 0
-77 -79 -87 -168 0
77 79 87 168 0
-77 -80 -88 -169 0
77 80 88 169 0
-77 -81 -89 -170 0
77 81 89 170 0
-77 -82 -90 -171 0
77 82 90 171 0
-77 -83 -91 -172 0
77 83 91 172 0
-77 -84 -92 -173 0
77 84 92 173 0
-77 -85 -93 -174 0
77 85 93 174 0
-78 -79 -94 -175 0
78 79 94 175 0
-78 -80 -95 -176 0
78 80 95 176 0
-78 -81 -96 -177 0
78 81 96 177 0
-78 -82 -97 -178 0
78 82 97 178 0
-78 -83 -98 -179 0
78 83 98 179 0
-78 -84 -99 -180 0
78 84 99 180 0
-78 -85 -100 -181 0
78 85 100 181 0
-79 -80 -101 -182 0
79 80 101 182 0
-79 -81 -102 -183 0
79 81 102 183 0
-79 -82 -103 -184 0
79 82 103 184 0
-79 -83 -104 -185 0
79 83 104 185 0
-79 -84 -105 -186 0
79 84 105 186 0
-79 -85 -106 -187 0
79 85 106 187 0
-80 -81 -107 -188 0
80 81 107 188 0
-80 -82 -108 -189 0
80 82 108 189 0
-80 -83 -109 -190 0
80 83 109 190 0
-80 -84 -110 -191 0
80 84 110 191 0
-80 -85 -111 -192 0
80 85 111 192 0
-81 -82 -112 -193 0
81 82 112 193 0
-81 -83 -113 -194 0
81 83 113 194 0
-81 -84 -114 -195 0
81 84 114 195 0
-81 -85 -115 -196 0
81 85 115 196 0
-82 -83 -116 -197 0
82 83 116 197 0
-82 -84 -117 -198 0
82 84 117 198 0
-82 -85 -118 -199 0
82 85 118 199 0
-83 -84 -119 -200 0
83 84 119 200 0
-83 -85 -120 -201 0
83 85 120 201 0
-84 -85 -121 -202 0
84 85 121 202 0
-86 -87 -94 -203 0
86 87 94 203 0
-86 -88 -95 -204 0
86 88 95 204 0
-86 -89 -96 -205 0
86 89 96 205 0
-86 -90 -97 -206 0
86 90 97 206 0
-86 -91 -98 -207 0
86 91 98 207 0
-86 -92 -99 -208 0
86 92 99 208 0
-86 -93 -100 -209 0
86 93 100 209 0
-87 -88 -101 -210 0
87 88 101 210 0
-87 -89 -102 -211 0
87 89 102 211 0
-87 -90 -103 -212 0
87 90 103 212 0
-87 -91 -104 -213 0
87 91 104 213 0
-87 -92 -105 -214 0
87 92 105 214 0
-87 -93 -106 -215 0
87 93 106 215 0
-88 -89 -107 -216 0
88 89 107 216 0
-88 -90 -108 -217 0
88 90 108 217 0
-88 -91 -109 -218 0
88 91 109 218 0
-88 -92 -110 -219 0
88 92 110 219 0
-88 -93 -111 -220 0
88 93 111 220 0
-89 -90 -112 -221 0
89 90 112 221 0
-89 -91 -113 -222 0
89 91 113 222 0
-89 -92 -114 -223 0
89 92 114 223 0
-89 -93 -115 -224 0
89 93 115 224 0
-90 -91 -116 -225 0
90 91 116 225 0
-90 -92 -117 -226 0
90 92 117 226 0
-90 -93 -118 -227 0
90 93 118 227 0
-91 -92 -119 -228 0
91 92 119 228 0
-91 -93 -120 -229 0
91 93 120 229 0
-92 -93 -121 -230 0
92 93 121 230 0
-94 -95 -101 -231 0
94 95 101 231 0
-94 -96 -102 -232 0
94 96 102 232 0
-94 -97 -103 -233 0
94 97 103 233 0
-94 -98 -104 -234 0
94 98 104 234 0
-94 -99 -105 -235 0
94 99 105 235 0
-94 -100 -106 -236 0
94 100 106 236 0
-95 -96 -107 -237 0
95 96 107 237 0
-95 -97 -108 -238 0
95 97 108 238 0
-95 -98 -109 -239 0
95 98 109 239 0
-95 -99 -110 -240 0
95 99 110 240 0
-95 -100 -111 -241 0
95 100 111 241 0
-96 -97 -112 -242 0
96 97 112 242 0
-96 -98 -113 -243 0
96 98 113 243 0
-96 -99 -114 -244 0
96 99 114 244 0
-96 -100 -115 -245 0
96 100 115 245 0
-97 -98 -116 -246 0
97 98 116 246 0
-97 -99 -117 -247 0
97 99 117 247 0
-97 -100 -118 -248 0
97 100 118 248 0
-98 -99 -119 -249 0
98 99 119 249 0
-98 -100 -120 -250 0
98 100 120 250 0
-99 -100 -121 -251 0
99 100 121 251 0
-101 -102 -107 -252 0
101 102 107 252 0
-101 -103 -108 -253 0
101 103 108 253 0
-101 -104 -109 -254 0
101 104 109 254 0
-101 -105 -110 -255 0
101 105 110 255 0
-101 -106 -111 -256 0
101 106 111 256 0
-102 -103 -112 -257 0
102 103 112 257 0
-102 -104 -113 -258 0
102 104 113 258 0
-102 -105 -114 -259 0
102 105 114 259 0
-102 -106 -115 -260 0
102 106 115 260 0
-103 -104 -116 -261 0
103 104 116 261 0
-103 -105 -117 -262 0
103 105 117 262 0
-103 -106 -118 -263 0
103 106 118 263 0
-104 -105 -119 -264 0
104 105 119 264 0
-104 -106 -120 -265 0
104 106 120 265 0
-105 -106 -121 -266 0
105 106 121 266 0
-107 -108 -112 -267 0
107 108 112 267 0
-107 -109 -113 -268 0
107 109 113 268 0
-107 -110 -114 -269 0
107 110 114 269 0
-107 -111 -115 -270 0
107 111 115 270 0
-108 -109 -116 -271 0
108 109 116 271 0
-108 -110 -117 -272 0
108 110 117 272 0
-108 -111 -118 -273 0
108 111 118 273 0
-109 -110 -119 -274 0
109 110 119 274 0
-109 -111 -120 -275 0
109 111 120 275 0
-110 -111 -121 -276 0
110 111 121 276 0
-112 -113 -116 -277 0
112 113 116 277 0
-112 -114 -117 -278 0
112 114 117 278 0
-112 -115 -118 -279 0
112 115 118 279 0
-113 -114 -119 -280 0
113 114 119 280 0
-113 -115 -120 -281 0
113 115 120 281 0
-114 -115 -121 -282 0
114 115 121 282 0
-116 -117 -119 -283 0
116 117 119 283 0
-116 -118 -120 -284 0
116 118 120 284 0
-117 -118 -121 -285 0
117 118 121 285 0
-119 -120 -121 -286 0
119 120 121 286 0
-122 -123 -131 -167 0
122 123 131 167 0
-122 -124 -132 -168 0
122 124 132 168 0
-122 -125 -133 -169 0
122 125 133 169 0
-122 -126 -134 -170 0
122 126 134 170 0
-122 -127 -135 -171 0
122 127 135 171 0
-122 -128 -136 -172 0
122 128 136 172 0
-122 -129 -137 -173 0
122 129 137 173 0
-122 -130 -138 -174 0
122 130 138 174 0
-123 -124 -139 -175 0
123 124 139 175 0
-123 -125 -140 -176 0
123 125 140 176 0
-123 -126 -141 -177 0
123 126 141 177 0
-123 -127 -142 -178 0
123 127 142 178 0
-123 -128 -143 -179 0
123 128 143 179 0
-123 -129 -144 -180 0
123 129 144 180 0
-123 -130 -145 -181 0
123 130 145 181 0
-124 -125 -146 -182 0
124 125 146 182 0
-124 -126 -147 -183 0
124 126 147 183 0
-124 -127 -148 -184 0
124 127 148 184 0
-124 -128 -149 -185 0
124 128 149 185 0
-124 -129 -150 -186 0
124 129 150 186 0
-124 -130 -151 -187 0
124 130 151 187 0
-125 -126 -152 -188 0
125 126 152 188 0
-125 -127 -153 -189 0
125 127 153 189 0
-125 -128 -154 -190 0
125 128 154 190 0
-125 -129 -155 -191 0
125 129 155 191 0
-125 -130 -156 -192 0
125 130 156 192 0
-126 -127 -157 -193 0
126 127 157 193 0
-126 -128 -158 -194 0
126 128 158 194 0
-126 -129 -159 -195 0
126 129 159 195 0
-126 -130 -160 -196 0
126 130 160 196 0
-127 -128 -161 -197 0
127 128 161 197 0
-127 -129 -162 -198 0
127 129 162 198 0
-127 -130 -163 -199 0
127 130 163 199 0
-128 -129 -164 -200 0
128 129 164 200 0
-128 -130 -165 -201 0
128 130 165 201 0
-129 -130 -166 -202 0
129 130 166 202 0
-131 -132 -139 -203 0
131 132 139 203 0
-131 -133 -140 -204 0
131 133 140 204 0
-131 -134 -141 -205 0
131 134 141 205 0
-131 -135 -142 -206 0
131 135 142 206 0
-131 -136 -143 -207 0
131 136 143 207 0
-131 -137 -144 -208 0
131 137 144 208 0
-131 -138 -145 -209 0
131 138 145 209 0
-132 -133 -146 -210 0
132 133 146 210 0
-132 -134 -147 -211 0
132 134 147 211 0
-132 -135 -148 -212 0
132 135 148 212 0
-132 -136 -149 -213 0
132 136 149 213 0
-132 -137 -150 -214 0
132 137 150 214 0
-132 -138 -151 -215 0
132 138 151 215 0
-133 -134 -152 -216 0
133 134 152 216 0
-133 -135 -153 -217 0
133 135 153 217 0
-133 -136 -154 -218 0
133 136 154 218 0
-133 -137 -155 -219 0
133 137 155 219 0
-133 -138 -156 -220 0
133 138 156 220 0
-134 -135 -157 -221 0
134 135 157 221 0
-134 -136 -158 -222 0
134 136 158 222 0
-134 -137 -159 -223 0
134 137 159 223 0
-134 -138 -160 -224 0
134 138 160 224 0
-135 -136 -161 -225 0
135 136 161 225 0
-135 -137 -162 -226 0
135 137 162 226 0
-135 -138 -163 -227 0
135 138 163 227 0
-136 -137 -164 -228 0
136 137 164 228 0
-136 -138 -165 -229 0
136 138 165 229 0
-137 -138 -166 -230 0
137 138 166 230 0
-139 -140 -146 -231 0
139 140 146 231 0
-139 -141 -147 -232 0
139 141 147 232 0
-139 -142 -148 -233 0
139 142 148 233 0
-139 -143 -149 -234 0
139 143 149 234 0
-139 -144 -150 -235 0
139 144 150 235 0
-139 -145 -151 -236 0
139 145 151 236 0
-140 -141 -152 -237 0
140 141 152 237 0
-140 -142 -153 -238 0
140 142 153 238 0
-140 -143 -154 -239 0
140 143 154 239 0
-140 -144 -155 -240 0
140 144 155 240 0
-140 -145 -156 -241 0
140 145 156 241 0
-141 -142 -157 -242 0
141 142 157 242 0
-141 -143 -158 -243 0
141 143 158 243 0
-141 -144 -159 -244 0
141 144 159 244 0
-141 -145 -160 -245 0
141 145 160 245 0
-142 -143 -161 -246 0
142 143 161 246 0
-142 -144 -162 -247 0
142 144 162 247 0
-142 -145 -163 -248 0
142 145 163 248 0
-143 -144 -164 -249 0
143 144 164 249 0
-143 -145 -165 -250 0
143 145 165 250 0
-144 -145 -166 -251 0
144 145 166 251 0
-146 -147 -152 -252 0
146 147 152 252 0
-146 -148 -153 -253 0
146 148 153 253 0
-146 -149 -154 -254 0
146 149 154 254 0
-146 -150 -155 -255 0
146 150 155 255 0
-146 -151 -156 -256 0
146 151 156 256 0
-147 -148 -157 -257 0
147 148 157 257 0
-147 -149 -158 -258 0
147 149 158 258 0
-147 -150 -159 -259 0
147 150 159 259 0
-147 -151 -160 -260 0
147 151 160 260 0
-148 -149 -161 -261 0
148 149 161 261 0
-148 -150 -162 -262 0
148 150 162 262 0
-148 -151 -163 -263 0
148 151 163 263 0
-149 -150 -164 -264 0
149 150 164 264 0
-149 -151 -165 -265 0
149 151 165 265 0
-150 -151 -166 -266 0
150 151 166 266 0
-152 -153 -157 -267 0
152 153 157 267 0
-152 -154 -158 -268 0
152 154 158 268 0
-152 -155 -159 -269 0
152 155 159 269 0
-152 -156 -160 -270 0
152 156 160 270 0
-153 -154 -161 -271 0
153 154 161 271 0
-153 -155 -162 -272 0
153 155 162 272 0
-153 -156 -163 -273 0
153 156 163 273 0
-154 -155 -164 -274 0
154 155 164 274 0
-154 -156 -165 -275 0
154 156 165 275 0
-155 -156 -166 -276 0
155 156 166 276 0
-157 -158 -161 -277 0
157 158 161 277 0
-157 -159 -162 -278 0
157 159 162 278 0
-157 -160 -163 -279 0
157 160 163 279 0
-158 -159 -164 -280 0
158 159 164 280 0
-158 -160 -165 -281 0
158 160 165 281 0
-159 -160 -166 -282 0
159 160 166 282 0
-161 -162 -164 -283 0
161 162 164 283 0
-161 -163 -165 -284 0
161 163 165 284 0
-162 -163 -166 -285 0
162 163 166 285 0
-164 -165 -166 -286 0
164 165 166 286 0
-167 -168 -175 -203 0
167 168 175 203 0
-167 -169 -176 -204 0
167 169 176 204 0
-167 -170 -177 -205 0
167 170 177 205 0
-167 -171 -178 -206 0
167 171 178 206 0
-167 -172 -179 -207 0
167 172 179 207 0
-167 -173 -180 -208 0
167 173 180 208 0
-167 -174 -181 -209 0
167 174 181 209 0
-168 -169 -182 -210 0
168 169 182 210 0
-168 -170 -183 -211 0
168 170 183 211 0
-168 -171 -184 -212 0
168 171 184 212 0
-168 -172 -185 -213 0
168 172 185 213 0
-168 -173 -186 -214 0
168 173 186 214 0
-168 -174 -187 -215 0
168 174 187 215 0
-169 -170 -188 -216 0
169 170 188 216 0
-169 -171 -189 -217 0
169 171 189 217 0
-169 -172 -190 -218 0
169 172 190 218 0
-169 -173 -191 -219 0
169 173 191 219 0
-169 -174 -192 -220 0
169 174 192 220 0
-170 -171 -193 -221 0
170 171 193 221 0
-170 -172 -194 -222 0
170 172 194 222 0
-170 -173 -195 -223 0
170 173 195 223 0
-170 -174 -196 -224 0
170 174 196 224 0
-171 -172 -197 -225 0
171 172 197 225 0
-171 -173 -198 -226 0
171 173 198 226 0
-171 -174 -199 -227 0
171 174 199 227 0
-172 -173 -200 -228 0
172 173 200 228 0
-172 -174 -201 -229 0
172 174 201 229 0
-173 -174 -202 -230 0
173 174 202 230 0
-175 -176 -182 -231 0
175 176 182 231 0
-175 -177 -183 -232 0
175 177 183 232 0
-175 -178 -184 -233 0
175 178 184 233 0
-175 -179 -185 -234 0
175 179 185 234 0
-175 -180 -186 -235 0
175 180 186 235 0
-175 -181 -187 -236 0
175 181 187 236 0
-176 -177 -188 -237 0
176 177 188 237 0
-176 -178 -189 -238 0
176 178 189 238 0
-176 -179 -190 -239 0
176 179 190 239 0
-176 -180 -191 -240 0
176 180 191 240 0
-176 -181 -192 -241 0
176 181 192 241 0
-177 -178 -193 -242 0
177 178 193 242 0
-177 -179 -194 -243 0
177 179 194 243 0
-177 -180 -195 -244 0
177 180 195 244 0
-177 -181 -196 -245 0
177 181 196 245 0
-178 -179 -197 -246 0
178 179 197 246 0
-178 -180 -198 -247 0
178 180 198 247 0
-178 -181 -199 -248 0
178 181 199 248 0
-179 -180 -200 -249 0
179 180 200 249 0
-179 -181 -201 -250 0
179 181 201 250 0
-180 -181 -202 -251 0
180 181 202 251 0
-182 -183 -188 -252 0
182 183 188 252 0
-182 -184 -189 -253 0
182 184 189 253 0
-182 -185 -190 -254 0
182 185 190 254 0
-182 -186 -191 -255 0
182 186 191 255 0
-182 -187 -192 -256 0
182 187 192 256 0
-183 -184 -193 -257 0
183 184 193 257 0
-183 -185 -194 -258 0
183 185 194 258 0
-183 -186 -195 -259 0
183 186 195 259 0
-183 -187 -196 -260 0
183 187 196 260 0
-184 -185 -197 -261 0
184 185 197 261 0
-184 -186 -198 -262 0
184 186 198 262 0
-184 -187 -199 -263 0
184 187 199 263 0
-185 -186 -200 -264 0
185 186 200 264 0
-185 -187 -201 -265 0
185 187 201 265 0
-186 -187 -202 -266 0
186 187 202 266 0
-188 -189 -193 -267 0
188 189 193 267 0
-188 -190 -194 -268 0
188 190 194 268 0
-188 -191 -195 -269 0
188 191 195 269 0
-188 -192 -196 -270 0
188 192 196 270 0
-189 -190 -197 -271 0
189 190 197 271 0
-189 -191 -198 -272 0
189 191 198 272 0
-189 -192 -199 -273 0
189 192 199 273 0
-190 -191 -200 -274 0
190 191 200 274 0
-190 -192 -201 -275 0
190 192 201 275 0
-191 -192 -202 -276 0
191 192 202 276 0
-193 -194 -197 -277 0
193 194 197 277 0
-193 -195 -198 -278 0
193 195 198 278 0
-193 -196 -199 -279 0
193 196 199 279 0
-194 -195 -200 -280 0
194 195 200 280 0
-194 -196 -201 -281 0
194 196 201 281 0
-195 -196 -202 -282 0
195 196 202 282 0
-197 -198 -200 -283 0
197 198 200 283 0
-197 -199 -201 -284 0
197 199 201 284 0
-198 -199 -202 -285 0
198 199 202 285 0
-200 -201 -202 -286 0
200 201 202 286 0
-203 -204 -210 -231 0
203 204 210 231 0
-203 -205 -211 -232 0
203 205 211 232 0
-203 -206 -212 -233 0
203 206 212 233 0
-203 -207 -213 -234 0
203 207 213 234 0
-203 -208 -214 -235 0
203 208 214 235 0
-203 -209 -215 -236 0
203 209 215 236 0
-204 -205 -216 -237 0
204 205 216 237 0
-204 -206 -217 -238 0
204 206 217 238 0
-204 -207 -218 -239 0
204 207 218 239 0
-204 -208 -219 -240 0
204 208 219 240 0
-204 -209 -220 -241 0
204 209 220 241 0
-205 -206 -221 -242 0
205 206 221 242 0
-205 -207 -222 -243 0
205 207 222 243 0
-205 -208 -223 -244 0
205 208 223 244 0
-205 -209 -224 -245 0
205 209 224 245 0
-206 -207 -225 -246 0
206 207 225 246 0
-206 -208 -226 -247 0
206 208 226 247 0
-206 -209 -227 -248 0
206 209 227 248 0
-207 -208 -228 -249 0
207 208 228 249 0
-207 -209 -229 -250 0
207 209 229 250 0
-208 -209 -230 -251 0
208 209 230 251 0
-210 -211 -216 -252 0
210 211 216 252 0
-210 -212 -217 -253 0
210 212 217 253 0
-210 -213 -218 -254 0
210 213 218 254 0
-210 -214 -219 -255 0
210 214 219 255 0
-210 -215 -220 -256 0
210 215 220 256 0
-211 -212 -221 -257 0
211 212 221 257 0
-211 -213 -222 -258 0
211 213 222 258 0
-211 -214 -223 -259 0
211 214 223 259 0
-211 -215 -224 -260 0
211 215 224 260 0
-212 -213 -225 -261 0
212 213 225 261 0
-212 -214 -226 -262 0
212 214 226 262 0
-212 -215 -227 -263 0
212 215 227 263 0
-213 -214 -228 -264 0
213 214 228 264 0
-213 -215 -229 -265 0
213 215 229 265 0
-214 -215 -230 -266 0
214 215 230 266 0
-216 -217 -221 -267 0
216 217 221 267 0
-216 -218 -222 -268 0
216 218 222 268 0
-216 -219 -223 -269 0
216 219 223 269 0
-216 -220 -224 -270 0
216 220 224 270 0
-217 -218 -225 -271 0
217 218 225 271 0
-217 -219 -226 -272 0
217 219 226 272 0
-217 -220 -227 -273 0
217 220 227 273 0
-218 -219 -228 -274 0
218 219 228 274 0
-218 -220 -229 -275 0
218 220 229 275 0
-219 -220 -230 -276 0
219 220 230 276 0
-221 -222 -225 -277 0
221 222 225 277 0
-221 -223 -226 -278 0
221 223 226 278 0
-221 -224 -227 -279 0
221 224 227 279 0
-222 -223 -228 -280 0
222 223 228 280 0
-222 -224 -229 -281 0
222 224 229 281 0
-223 -224 -230 -282 0
223 224 230 282 0
-225 -226 -228 -283 0
225 226 228 283 0
-225 -227 -229 -284 0
225 227 229 284 0
-226 -227 -230 -285 0
226 227 230 285 0
-228 -229 -230 -286 0
228 229 230 286 0
-231 -232 -237 -252 0
231 232 237 252 0
-231 -233 -238 -253 0
231 233 238 253 0
-231 -234 -239 -254 0
231 234 239 254 0
-231 -235 -240 -255 0
231 235 240 255 0
-231 -236 -241 -256 0
231 236 241 256 0
-232 -233 -242 -257 0
232 233 242 257 0
-232 -234 -243 -258 0
232 234 243 258 0
-232 -235 -244 -259 0
232 235 244 259 0
-232 -236 -245 -260 0
232 236 245 260 0
-233 -234 -246 -261 0
233 234 246 261 0
-233 -235 -247 -262 0
233 235 247 262 0
-233 -236 -248 -263 0
233 236 248 263 0
-234 -235 -249 -264 0
234 235 249 264 0
-234 -236 -250 -265 0
234 236 250 265 0
-235 -236 -251 -266 0
235 236 251 266 0
-237 -238 -242 -267 0
237 238 242 267 0
-237 -239 -243 -268 0
237 239 243 268 0
-237 -240 -244 -269 0
237 240 244 269 0
-237 -241 -245 -270 0
237 241 245 270 0
-238 -239 -246 -271 0
238 239 246 271 0
-238 -240 -247 -272 0
238 240 247 272 0
-238 -241 -248 -273 0
238 241 248 273 0
-239 -240 -249 -274 0
239 240 249 274 0
-239 -241 -250 -275 0
239 241 250 275 0
-240 -241 -251 -276 0
240 241 251 276 0
-242 -243 -246 -277 0
242 243 246 277 0
-242 -244 -247 -278 0
242 244 247 278 0
-242 -245 -248 -279 0
242 245 248 279 0
-243 -244 -249 -280 0
243 244 249 280 0
-243 -245 -250 -281 0
243 245 250 281 0
-244 -245 -251 -282 0
244 245 251 282 0
-246 -247 -249 -283 0
246 247 249 283 0
-246 -248 -250 -284 0
246 248 250 284 0
-247 -248 -251 -285 0
247 248 251 285 0
-249 -250 -251 -286 0
249 250 251 286 0
-252 -253 -257 -267 0
252 253 257 267 0
-252 -254 -258 -268 0
252 254 258 268 0
-252 -255 -259 -269 0
252 255 259 269 0
-252 -256 -260 -270 0
252 256 260 270 0
-253 -254 -261 -271 0
253 254 261 271 0
-253 -255 -262 -272 0
253 255 262 272 0
-253 -256 -263 -273 0
253 256 263 273 0
-254 -255 -264 -274 0
254 255 264 274 0
-254 -256 -265 -275 0
254 256 265 275 0
-255 -256 -266 -276 0
255 256 266 276 0
-257 -258 -261 -277 0
257 258 261 277 0
-257 -259 -262 -278 0
257 259 262 278 0
-257 -260 -263 -279 0
257 260 263 279 0
-258 -259 -264 -280 0
258 259 264 280 0
-258 -260 -265 -281 0
258 260 265 281 0
-259 -260 -266 -282 0
259 260 266 282 0
-261 -262 -264 -283 0
261 262 264 283 0
-261 -263 -265 -284 0
261 263 265 284 0
-262 -263 -266 -285 0
262 263 266 285 0
-264 -265 -266 -286 0
264 265 266 286 0
-267 -268 -271 -277 0
267 268 271 277 0
-267 -269 -272 -278 0
267 269 272 278 0
-267 -270 -273 -279 0
267 270 273 279 0
-268 -269 -274 -280 0
268 269 274 280 0
-268 -270 -275 -281 0
268 270 275 281 0
-269 -270 -276 -282 0
269 270 276 282 0
-271 -272 -274 -283 0
271 272 274 283 0
-271 -273 -275 -284 0
271 273 275 284 0
-272 -273 -276 -285 0
272 273 276 285 0
-274 -275 -276 -286 0
274 275 276 286 0
-277 -278 -280 -283 0
277 278 280 283 0
-277 -279 -281 -284 0
277 279 281 284 0
-278 -279 -282 -285 0
278 279 282 285 0
-280 -281 -282 -286 0
280 281 282 286 0
-283 -284 -285 -286 0
283 284 285 286 0
